decision_x1=[0,2];
decision_x2=[0,2];
decision_x3=[0,2];
decision_x4=[0,2];
decision_x5=[0,2];
decision_x6=[0,2];
decision_x7=[0,2];
decision_x8=[0,2];
decision_x9=[0,2];
decision_x10=[0,2];
decision_x11=[0,2];
decision_x12=[0,2];
random_y1=[0,2];
random_y2=[0,2];
random_y3=[0,2];
constraint_x2_x1=[
0,0,9.4|
0,1,0.54|
0,2,4.5|
1,0,5.2|
1,1,6.6|
1,2,5.2|
2,0,1.5|
2,1,9.9|
2,2,0.066|
];
constraint_x3_x2=[
0,0,7.8|
0,1,2.3|
0,2,8.8|
1,0,3.5|
1,1,4.2|
1,2,9.3|
2,0,3.7|
2,1,6.1|
2,2,6.9|
];
constraint_x4_x1=[
0,0,9|
0,1,9.5|
0,2,9.8|
1,0,6.9|
1,1,8.7|
1,2,4.1|
2,0,7.2|
2,1,5|
2,2,9.1|
];
constraint_x5_x3=[
0,0,4.7|
0,1,9.1|
0,2,4.8|
1,0,0.69|
1,1,0.97|
1,2,5.3|
2,0,0.25|
2,1,3.3|
2,2,6.7|
];
constraint_x5_x4=[
0,0,6.7|
0,1,8.3|
0,2,6.8|
1,0,4.3|
1,1,4.6|
1,2,4.6|
2,0,3.5|
2,1,1.2|
2,2,4|
];
constraint_x6_x4=[
0,0,1.7|
0,1,7.9|
0,2,2.9|
1,0,3.4|
1,1,4.1|
1,2,9.8|
2,0,2.8|
2,1,8.1|
2,2,3.9|
];
constraint_x7_x1=[
0,0,9|
0,1,8.3|
0,2,1.3|
1,0,7.7|
1,1,5.7|
1,2,8.4|
2,0,2.8|
2,1,7.4|
2,2,3.2|
];
constraint_x7_x4=[
0,0,9.3|
0,1,6.1|
0,2,8.6|
1,0,0.099|
1,1,8|
1,2,7.1|
2,0,2.5|
2,1,9.7|
2,2,7.3|
];
constraint_x8_x2=[
0,0,6.3|
0,1,4.4|
0,2,9.5|
1,0,6.6|
1,1,7.5|
1,2,4.8|
2,0,6.7|
2,1,3.6|
2,2,6.6|
];
constraint_x8_x3=[
0,0,8|
0,1,5.4|
0,2,8.2|
1,0,9|
1,1,8.9|
1,2,2.1|
2,0,8.9|
2,1,8.9|
2,2,6.4|
];
constraint_x8_x5=[
0,0,9.1|
0,1,2.3|
0,2,0.0035|
1,0,1.7|
1,1,2.3|
1,2,0.98|
2,0,1.1|
2,1,3.3|
2,2,5.1|
];
constraint_x8_x6=[
0,0,5.1|
0,1,8.9|
0,2,1.3|
1,0,7.5|
1,1,4.6|
1,2,7.7|
2,0,0.041|
2,1,5.5|
2,2,4.3|
];
constraint_x8_x7=[
0,0,6.8|
0,1,1.7|
0,2,0.089|
1,0,5.2|
1,1,3.2|
1,2,0.32|
2,0,6.4|
2,1,0.88|
2,2,4.7|
];
constraint_x9_x6=[
0,0,9.9|
0,1,6.2|
0,2,8|
1,0,1|
1,1,6.5|
1,2,0.55|
2,0,6.3|
2,1,9|
2,2,0.32|
];
constraint_x9_x7=[
0,0,9.3|
0,1,7|
0,2,5.3|
1,0,8|
1,1,7.3|
1,2,7|
2,0,4.2|
2,1,7.6|
2,2,1.2|
];
constraint_x9_x8=[
0,0,8.5|
0,1,3.6|
0,2,2.6|
1,0,7.8|
1,1,9.6|
1,2,1.6|
2,0,3|
2,1,7.5|
2,2,7|
];
constraint_x10_x4=[
0,0,0.6|
0,1,8.7|
0,2,2|
1,0,4.6|
1,1,1.7|
1,2,0.19|
2,0,7.2|
2,1,6.3|
2,2,3.9|
];
constraint_x10_x5=[
0,0,6.4|
0,1,2.5|
0,2,7.9|
1,0,9.1|
1,1,7.3|
1,2,8.1|
2,0,1.1|
2,1,2.3|
2,2,3.2|
];
constraint_x10_x7=[
0,0,0.57|
0,1,2.4|
0,2,8.3|
1,0,3|
1,1,0.28|
1,2,8.6|
2,0,10|
2,1,5.9|
2,2,2|
];
constraint_x11_x1=[
0,0,9.3|
0,1,1.4|
0,2,0.34|
1,0,8|
1,1,4.8|
1,2,9.9|
2,0,3.2|
2,1,8.6|
2,2,8.8|
];
constraint_x11_x4=[
0,0,4.3|
0,1,2.2|
0,2,2.3|
1,0,9.1|
1,1,3.2|
1,2,8.7|
2,0,1.6|
2,1,2.2|
2,2,3.4|
];
constraint_x11_x5=[
0,0,9.2|
0,1,9.4|
0,2,9.3|
1,0,6.5|
1,1,2.2|
1,2,6.7|
2,0,8.2|
2,1,8.2|
2,2,3.3|
];
constraint_x11_x6=[
0,0,4.6|
0,1,6.3|
0,2,6.6|
1,0,7.5|
1,1,1.2|
1,2,3.3|
2,0,8.1|
2,1,6.4|
2,2,7.9|
];
constraint_x11_x7=[
0,0,8.8|
0,1,3.8|
0,2,8.1|
1,0,7.6|
1,1,9.5|
1,2,6.2|
2,0,6.4|
2,1,5.5|
2,2,2|
];
constraint_x11_x8=[
0,0,1.6|
0,1,7.9|
0,2,2.3|
1,0,2.4|
1,1,5.4|
1,2,5.9|
2,0,5.5|
2,1,7.5|
2,2,3|
];
constraint_x11_x9=[
0,0,5.1|
0,1,2.2|
0,2,0.98|
1,0,5.4|
1,1,7.4|
1,2,6.9|
2,0,8.1|
2,1,2.2|
2,2,3.4|
];
constraint_x11_x10=[
0,0,10|
0,1,6.4|
0,2,9.2|
1,0,9.6|
1,1,7.7|
1,2,3.7|
2,0,7.7|
2,1,5.3|
2,2,2.2|
];
constraint_x12_x1=[
0,0,5|
0,1,7.4|
0,2,4.5|
1,0,5.9|
1,1,2.7|
1,2,4.1|
2,0,5.2|
2,1,6.7|
2,2,4.1|
];
constraint_x12_x2=[
0,0,1.9|
0,1,0.17|
0,2,9.1|
1,0,2.8|
1,1,5.6|
1,2,5.5|
2,0,5.6|
2,1,3.6|
2,2,8.6|
];
constraint_x12_x3=[
0,0,2.1|
0,1,8.3|
0,2,3.1|
1,0,0.29|
1,1,9.6|
1,2,9.1|
2,0,2|
2,1,9.7|
2,2,4|
];
constraint_x12_x7=[
0,0,0.39|
0,1,3.8|
0,2,4.2|
1,0,2.9|
1,1,8.7|
1,2,8.4|
2,0,6.5|
2,1,2.8|
2,2,3.1|
];
constraint_x12_x8=[
0,0,8.1|
0,1,0.44|
0,2,0.92|
1,0,0.96|
1,1,2.8|
1,2,3.3|
2,0,8.1|
2,1,5.8|
2,2,1.1|
];
constraint_x12_x11=[
0,0,0.085|
0,1,2.3|
0,2,8.7|
1,0,3.9|
1,1,2|
1,2,9.9|
2,0,8.5|
2,1,3.4|
2,2,0.085|
];
constraint_x1_y1=[
0,0,4.9|
0,1,9.2|
0,2,8.3|
1,0,2.7|
1,1,9.5|
1,2,4.9|
2,0,4.8|
2,1,6.1|
2,2,0.48|
];
constraint_x2_y2=[
0,0,5.2|
0,1,8|
0,2,1.3|
1,0,8|
1,1,3.9|
1,2,0.12|
2,0,8.7|
2,1,5.6|
2,2,8.3|
];
constraint_x3_y3=[
0,0,8.5|
0,1,0.34|
0,2,2.3|
1,0,5.1|
1,1,3.6|
1,2,9|
2,0,1.2|
2,1,3.9|
2,2,8.5|
];
initial_distribution_y1=[0.5,0.027,0.47];
initial_distribution_y2=[0.08,0.15,0.77];
initial_distribution_y3=[0.23,0.47,0.3];
transition_y1=[
0.41,0.29,0.3|
0.26,0.42,0.33|
0.62,0.34,0.044|
];
transition_y2=[
0.34,0.29,0.37|
0.52,0.29,0.18|
0.32,0.34,0.33|
];
transition_y3=[
0.061,0.77,0.17|
0.3,0.46,0.24|
0.45,0.25,0.3|
];
